16 32
1 2 4
1 5 5
2 3 5
2 6 4
3 4 3
3 7 1
4 8 1
5 6 3
5 9 4
6 7 3
6 10 3
7 8 5
7 11 3
8 12 1
9 10 1
9 13 4
10 11 2
10 14 4
11 12 3
11 15 3
12 16 2
13 14 2
14 15 1
15 16 4
1 13 2
2 14 2
3 15 2
4 16 4
1 4 5
5 8 3
9 12 1
13 16 4
